(set-option :auto-config false)
(set-option :model true)

(set-option :smt.mbqi false)

(define-sort Str () Int)
(declare-fun strLen (Str) Int)
(declare-fun subString (Str Int Int) Str)
(declare-fun concatString (Str Str) Str)
(define-sort Elt () Int)
(define-sort LSet () (Array Elt Bool))
(define-fun smt_set_emp () LSet ((as const LSet) false))
(define-fun smt_set_sng ((x Elt)) LSet (store ((as const LSet) false) x true))
(define-fun smt_set_mem ((x Elt) (s LSet)) Bool (select s x))
(define-fun smt_set_add ((s LSet) (x Elt)) LSet (store s x true))
(define-fun smt_set_cup ((s1 LSet) (s2 LSet)) LSet ((_ map or) s1 s2))
(define-fun smt_set_cap ((s1 LSet) (s2 LSet)) LSet ((_ map and) s1 s2))
(define-fun smt_set_com ((s LSet)) LSet ((_ map not) s))
(define-fun smt_set_dif ((s1 LSet) (s2 LSet)) LSet (smt_set_cap s1 (smt_set_com s2)))
(define-fun smt_set_sub ((s1 LSet) (s2 LSet)) Bool (= smt_set_emp (smt_set_dif s1 s2)))
(define-sort Map () (Array Elt Elt))
(define-fun smt_map_sel ((m Map) (k Elt)) Elt (select m k))
(define-fun smt_map_sto ((m Map) (k Elt) (v Elt)) Map (store m k v))
(define-fun smt_map_cup ((m1 Map) (m2 Map)) Map ((_ map (+ (Elt Elt) Elt)) m1 m2))
(define-fun smt_map_prj ((s LSet) (m Map)) Map ((_ map (ite (Bool Elt Elt) Elt)) s m ((as const (Array Elt Elt)) 0)))
(define-fun smt_map_to_set ((m Map)) LSet ((_ map (> (Elt Elt) Bool)) m ((as const (Array Elt Elt)) 0)))
(define-fun smt_map_max ((m1 Map) (m2 Map)) Map (lambda ((i Int)) (ite (> (select m1 i) (select m2 i)) (select m1 i) (select m2 i))))
(define-fun smt_map_min ((m1 Map) (m2 Map)) Map (lambda ((i Int)) (ite (< (select m1 i) (select m2 i)) (select m1 i) (select m2 i))))
(define-fun smt_map_shift ((n Int) (m Map)) Map (lambda ((i Int)) (select m (- i n))))
(define-fun smt_map_def ((v Elt)) Map ((as const (Map)) v))
(define-fun bool_to_int ((b Bool)) Int (ite b 1 0))
(define-fun Z3_OP_MUL ((x Int) (y Int)) Int (* x y))
(define-fun Z3_OP_DIV ((x Int) (y Int)) Int (div x y))
(declare-fun papp7 () Int)
(declare-fun lq_anf$36$$35$$35$7205759403794024140$35$$35$d5a7q () Int)
(declare-fun GHC.Exception.Type.C$58$Exception () Int)
(declare-fun lq_tmp$36$x$35$$35$4347 () Int)
(declare-fun lq_tmp$36$x$35$$35$4624 () Int)
(declare-fun GHC.Types.KindRepTypeLitS () Int)
(declare-fun lq_tmp$36$x$35$$35$4303 () Int)
(declare-fun Data.ByteString.Internal.$36$WPS () Int)
(declare-fun GHC.Types.$91$$93$ () Int)
(declare-fun GHC.Types.Word32Rep () Int)
(declare-fun lq_tmp$36$x$35$$35$4751 () Int)
(declare-fun InterfaceAdapters.Weather.WWITelegramPirate.runWWITelegramPirate () Int)
(declare-fun Data.Text.Encoding.Error.DecodeError () Int)
(declare-fun lq_tmp$36$x$35$$35$5192 () Int)
(declare-fun lq_tmp$36$x$35$$35$4355 () Int)
(declare-fun err$35$$35$a5a0i () Int)
(declare-fun GHC.Int.I64$35$ () Int)
(declare-fun GHC.Types.C$35$ () Int)
(declare-fun GHC.Types.$36$tcChar () Int)
(declare-fun lq_tmp$36$x$35$$35$3991 () Int)
(declare-fun GHC.Types.$58$ () Int)
(declare-fun lq_tmp$36$x$35$$35$4980 () Int)
(declare-fun InterfaceAdapters.Weather.WWITelegramPirate.InternalError () Int)
(declare-fun tail () Int)
(declare-fun Data.Typeable.Internal.TrTyCon () Int)
(declare-fun GHC.IO.Handle.Types.$36$WFileHandle () Int)
(declare-fun Data.ByteString.Lazy.Internal.Chunk () Int)
(declare-fun Data.Aeson.Types.ToJSON.C$58$ToJSON () Int)
(declare-fun lq_anf$36$$35$$35$7205759403794024102$35$$35$d5a6O () Int)
(declare-fun lit$36$EntityNotFound$32$ () Str)
(declare-fun Polysemy.Embed.Type.$36$WEmbed () Int)
(declare-fun GHC.Types.Word8Rep () Int)
(declare-fun lq_tmp$36$x$35$$35$4631 () Int)
(declare-fun GHC.Conc.Sync.ThreadId () Int)
(declare-fun GHC.Classes.$62$$61$ () Int)
(declare-fun lq_tmp$36$x$35$$35$4774 () Int)
(declare-fun GHC.IO.Handle.Types.DuplexHandle () Int)
(declare-fun lq_anf$36$$35$$35$7205759403794024111$35$$35$d5a6X () Int)
(declare-fun lq_anf$36$$35$$35$7205759403794024127$35$$35$d5a7d () Int)
(declare-fun GHC.IO.Handle.Types.FileHandle () Int)
(declare-fun UseCases.AgricultureUseCase.C$58$UserInput () Int)
(declare-fun lq_tmp$36$x$35$$35$4073 () Int)
(declare-fun InterfaceAdapters.Weather.WWITelegramPirate.$36$fShowWeatherTelegramException () Int)
(declare-fun Data.Aeson.Key.Key () Int)
(declare-fun UseCases.WWI.$36$WSendBackMsg () Int)
(declare-fun lq_tmp$36$x$35$$35$5699 () Int)
(declare-fun GHC.Word.W8$35$ () Int)
(declare-fun lq_anf$36$$35$$35$7205759403794024133$35$$35$d5a7j () Int)
(declare-fun lq_tmp$36$x$35$$35$98 () Int)
(declare-fun GHC.Tuple.$40$$44$$41$ () Int)
(declare-fun lq_tmp$36$x$35$$35$4424 () Int)
(declare-fun fix$36$$36$cp1Exception$35$$35$a5a3l () Int)
(declare-fun fix$36$$36$cdisplayException$35$$35$a5a3D () Int)
(declare-fun Data.Typeable.Internal.$36$WSomeTypeRep () Int)
(declare-fun lq_tmp$36$x$35$$35$4662 () Int)
(declare-fun Data.Aeson.Types.Internal.$36$WBool () Int)
(declare-fun InterfaceAdapters.Telegram.Telegram._callTelegramClient () Int)
(declare-fun Data.Aeson.Types.Internal.Object () Int)
(declare-fun lit$36$Telegram$32$ () Str)
(declare-fun GHC.Show.$36$fShow$91$$93$ () Int)
(declare-fun papp5 () Int)
(declare-fun GHC.Types.Word16Rep () Int)
(declare-fun lq_anf$36$$35$$35$7205759403794024136$35$$35$d5a7m () Int)
(declare-fun lq_tmp$36$x$35$$35$4757 () Int)
(declare-fun GHC.Base.$43$$43$ () Int)
(declare-fun GHC.Maybe.Just () Int)
(declare-fun x_Tuple22 () Int)
(declare-fun Data.Aeson.Types.Internal.$36$WNumber () Int)
(declare-fun GHC.Generics.C$58$Generic () Int)
(declare-fun lq_tmp$36$x$35$$35$5105 () Int)
(declare-fun GHC.Classes.$36$fOrdInt () Int)
(declare-fun GHC.Base.pure () Int)
(declare-fun GHC.Base.$62$$62$$61$ () Int)
(declare-fun InterfaceAdapters.Telegram.Telegram.getTelegramSettings () Int)
(declare-fun lq_anf$36$$35$$35$7205759403794024122$35$$35$d5a78 () Int)
(declare-fun lq_tmp$36$x$35$$35$4011 () Int)
(declare-fun GHC.IO.Exception.IOError () Int)
(declare-fun GHC.IO.MaskedUninterruptible () Int)
(declare-fun lq_anf$36$$35$$35$7205759403794024117$35$$35$d5a73 () Int)
(declare-fun lq_tmp$36$x$35$$35$5191 () Int)
(declare-fun GHC.Types.Module () Int)
(declare-fun GHC.Stack.Types.FreezeCallStack () Int)
(declare-fun lq_tmp$36$x$35$$35$4257 () Int)
(declare-fun GHC.Types.TrNameD () Int)
(declare-fun GHC.Types.Word64Rep () Int)
(declare-fun GHC.Types.TyCon () Int)
(declare-fun fix$36$$36$cshowList$35$$35$a5a3b () Int)
(declare-fun GHC.Show.showParen () Int)
(declare-fun GHC.Types.UnliftedRep () Int)
(declare-fun lq_tmp$36$x$35$$35$4524 () Int)
(declare-fun InterfaceAdapters.Weather.WWITelegramPirate.EntityNotFound () Int)
(declare-fun Data.Aeson.Types.Internal.Array () Int)
(declare-fun Data.Typeable.Internal.TrType () Int)
(declare-fun GHC.Exception.Type.SomeException () Int)
(declare-fun lq_anf$36$$35$$35$7205759403794024105$35$$35$d5a6R () Int)
(declare-fun lq_tmp$36$x$35$$35$4982 () Int)
(declare-fun lq_tmp$36$x$35$$35$4776 () Int)
(declare-fun GHC.Types.IntRep () Int)
(declare-fun lq_tmp$36$x$35$$35$5124 () Int)
(declare-fun fix$36$$36$cshow$35$$35$a5a35 () Int)
(declare-fun GHC.Types.DoubleRep () Int)
(declare-fun InterfaceAdapters.Weather.WWITelegramPirate.EntityAlreadyExists () Int)
(declare-fun lq_tmp$36$x$35$$35$96 () Int)
(declare-fun Polysemy.Internal.Combinators.interpret () Int)
(declare-fun lq_tmp$36$x$35$$35$4771 () Int)
(declare-fun lq_anf$36$$35$$35$7205759403794024106$35$$35$d5a6S () Int)
(declare-fun Data.Text.Internal.Text () Int)
(declare-fun lq_tmp$36$x$35$$35$5123 () Int)
(declare-fun Data.ByteString.Internal.PS () Int)
(declare-fun lq_anf$36$$35$$35$7205759403794024134$35$$35$d5a7k () Int)
(declare-fun GHC.Types.Int8Rep () Int)
(declare-fun Web.Telegram.API.Bot.API.Core.Token () Int)
(declare-fun GHC.Show.showsPrec () Int)
(declare-fun GHC.Real.$36$W$58$$37$ () Int)
(declare-fun Data.Typeable.Internal.$36$WTrTyCon () Int)
(declare-fun GHC.Types.KindRepFun () Int)
(declare-fun UseCases.WWI.UserAsk () Int)
(declare-fun GHC.Types.WordRep () Int)
(declare-fun papp3 () Int)
(declare-fun GHC.Show.$36$dmshow () Int)
(declare-fun Data.Typeable.Internal.$36$WTrApp () Int)
(declare-fun Polysemy.Embed.Type.Embed () Int)
(declare-fun fix$36$$36$krep_a5a45 () Int)
(declare-fun Data.Aeson.Types.Internal.Bool () Int)
(declare-fun fix$36$$36$cshowsPrec$35$$35$a5a2D () Int)
(declare-fun Data.Typeable.Internal.SomeTypeRep () Int)
(declare-fun lq_tmp$36$x$35$$35$4087 () Int)
(declare-fun lq_tmp$36$x$35$$35$4979 () Int)
(declare-fun Data.Aeson.Types.Internal.String () Int)
(declare-fun GHC.Enum.C$58$Bounded () Int)
(declare-fun lit$36$$39$InternalError () Str)
(declare-fun tk$35$$35$a5a0j () Int)
(declare-fun GHC.Types.True () Int)
(declare-fun GHC.CString.unpackCString$35$ () Int)
(declare-fun GHC.Base.$62$$62$ () Int)
(declare-fun GHC.Types.$36$WKindRepVar () Int)
(declare-fun GHC.Stack.Types.EmptyCallStack () Int)
(declare-fun x_Tuple33 () Int)
(declare-fun Data.Either.Right () Int)
(declare-fun Data.Aeson.Types.FromJSON.C$58$FromJSON () Int)
(declare-fun GHC.IO.MaskedInterruptible () Int)
(declare-fun GHC.Show.C$58$Show () Int)
(declare-fun co_a5a2t () Int)
(declare-fun lq_tmp$36$x$35$$35$4984 () Int)
(declare-fun lq_anf$36$$35$$35$7205759403794024142$35$$35$d5a7s () Int)
(declare-fun cast_as () Int)
(declare-fun lq_anf$36$$35$$35$7205759403794024129$35$$35$d5a7f () Int)
(declare-fun Data.Text.Internal.$36$WText () Int)
(declare-fun GHC.Types.KindRepApp () Int)
(declare-fun lq_anf$36$$35$$35$7205759403794024146$35$$35$d5a7w () Int)
(declare-fun lq_tmp$36$x$35$$35$5786 () Int)
(declare-fun Data.ByteString.Lazy.Internal.$36$WChunk () Int)
(declare-fun lq_anf$36$$35$$35$7205759403794024148$35$$35$d5a7y () Int)
(declare-fun GHC.Base.$36$fApplicativeIO () Int)
(declare-fun lq_tmp$36$x$35$$35$4981 () Int)
(declare-fun cast_as_int () Int)
(declare-fun lq_tmp$36$x$35$$35$94 () Int)
(declare-fun lq_tmp$36$x$35$$35$4773 () Int)
(declare-fun GHC.Base.$36$fMonadIO () Int)
(declare-fun InterfaceAdapters.Weather.WWITelegramPirate.sendBackTelegram () Int)
(declare-fun Data.Aeson.Types.Internal.$36$WObject () Int)
(declare-fun x$35$$35$a5a2d () Int)
(declare-fun fix$36$$36$ctoException$35$$35$a5a3r () Int)
(declare-fun Data.Typeable.Internal.$36$WTrType () Int)
(declare-fun UseCases.WWI.SendBackMsg () Int)
(declare-fun GHC.Types.Int64Rep () Int)
(declare-fun GHC.Types.LT () Int)
(declare-fun res$35$$35$a5a0h () Int)
(declare-fun GHC.Tuple.$40$$44$$44$$41$ () Int)
(declare-fun papp1 () Int)
(declare-fun GHC.Classes.$36$p2$40$$37$$44$$37$$41$ () Int)
(declare-fun GHC.Exception.Type.$36$dmdisplayException () Int)
(declare-fun lit$36$$39$EntityNotFound () Str)
(declare-fun GHC.Exception.Type.$36$dmtoException () Int)
(declare-fun lq_tmp$36$x$35$$35$99 () Int)
(declare-fun lq_anf$36$$35$$35$7205759403794024138$35$$35$d5a7o () Int)
(declare-fun Data.Typeable.Internal.TrFun () Int)
(declare-fun GHC.Exception.throw () Int)
(declare-fun GHC.Types.AddrRep () Int)
(declare-fun lq_anf$36$$35$$35$7205759403794024130$35$$35$d5a7g () Int)
(declare-fun papp6 () Int)
(declare-fun lq_tmp$36$x$35$$35$4346 () Int)
(declare-fun GHC.Classes.C$58$IP () Int)
(declare-fun Data.Either.Left () Int)
(declare-fun GHC.Classes.C$58$Eq () Int)
(declare-fun Polysemy.Internal.embed () Int)
(declare-fun lq_tmp$36$x$35$$35$5104 () Int)
(declare-fun liquid_internal_this () Int)
(declare-fun GHC.Types.KindRepTyConApp () Int)
(declare-fun fldList () Int)
(declare-fun lq_anf$36$$35$$35$7205759403794024113$35$$35$d5a6Z () Int)
(declare-fun GHC.Tuple.$40$$41$ () Int)
(declare-fun GHC.Types.KindRepVar () Int)
(declare-fun GHC.Types.I$35$ () Int)
(declare-fun GHC.IO.Unmasked () Int)
(declare-fun GHC.Types.KindRepTypeLitD () Int)
(declare-fun lq_tmp$36$x$35$$35$3967 () Int)
(declare-fun Data.ByteString.Lazy.Internal.Empty () Int)
(declare-fun lq_anf$36$$35$$35$7205759403794024135$35$$35$d5a7l () Int)
(declare-fun x_Tuple31 () Int)
(declare-fun lq_tmp$36$x$35$$35$4241 () Int)
(declare-fun lq_tmp$36$x$35$$35$5530 () Int)
(declare-fun lq_anf$36$$35$$35$7205759403794024139$35$$35$d5a7p () Int)
(declare-fun GHC.Num.Integer.IS () Int)
(declare-fun GHC.Types.FloatRep () Int)
(declare-fun Data.Aeson.Types.Internal.$36$WArray () Int)
(declare-fun Data.Aeson.Types.Internal.Null () Int)
(declare-fun Web.Telegram.API.Bot.Data.Update () Int)
(declare-fun lit$36$WeatherTelegramException () Str)
(declare-fun GHC.Show.$36$dmshowList () Int)
(declare-fun lq_tmp$36$x$35$$35$4758 () Int)
(declare-fun lq_tmp$36$x$35$$35$4983 () Int)
(declare-fun lq_tmp$36$x$35$$35$4727 () Int)
(declare-fun GHC.Types.LiftedRep () Int)
(declare-fun lit$36$$39$EntityAlreadyExists () Str)
(declare-fun GHC.Types.EQ () Int)
(declare-fun GHC.Real.$58$$37$ () Int)
(declare-fun GHC.Types.MkCoercible () Int)
(declare-fun GHC.Types.VecRep () Int)
(declare-fun lit$36$InternalError$32$ () Str)
(declare-fun GHC.Show.showString () Int)
(declare-fun lit$36$MaximumCity$45$0.9.9$45$IUoVqdUkwWmEGL6yhjWbHS () Str)
(declare-fun msg$35$$35$a5a0f () Int)
(declare-fun UseCases.WWI.GetWeatherTown () Int)
(declare-fun lq_tmp$36$x$35$$35$4775 () Int)
(declare-fun lq_tmp$36$x$35$$35$5765 () Int)
(declare-fun co_a5a2i () Int)
(declare-fun GHC.Types.krep$36$$42$ () Int)
(declare-fun lq_tmp$36$x$35$$35$5122 () Int)
(declare-fun lq_tmp$36$x$35$$35$97 () Int)
(declare-fun GHC.Base.. () Int)
(declare-fun GHC.Types.Int16Rep () Int)
(declare-fun papp4 () Int)
(declare-fun GHC.Types.$36$WKindRepTYPE () Int)
(declare-fun lq_tmp$36$x$35$$35$4542 () Int)
(declare-fun GHC.Types.eq_sel () Int)
(declare-fun lq_tmp$36$x$35$$35$4663 () Int)
(declare-fun Data.Aeson.Types.Internal.$36$WString () Int)
(declare-fun GHC.Stack.Types.PushCallStack () Int)
(declare-fun fix$36$$36$cfromException$35$$35$a5a3x () Int)
(declare-fun lq_tmp$36$x$35$$35$5106 () Int)
(declare-fun GHC.Types.Eq$35$ () Int)
(declare-fun lq_tmp$36$x$35$$35$4556 () Int)
(declare-fun GHC.Types.KindRepTYPE () Int)
(declare-fun lq_tmp$36$x$35$$35$4978 () Int)
(declare-fun GHC.Types.SumRep () Int)
(declare-fun x_Tuple21 () Int)
(declare-fun lq_tmp$36$x$35$$35$3933 () Int)
(declare-fun lq_tmp$36$x$35$$35$5190 () Int)
(declare-fun Data.Text.Encoding.Error.EncodeError () Int)
(declare-fun head () Int)
(declare-fun GHC.Maybe.Nothing () Int)
(declare-fun req$35$$35$a5a0e () Int)
(declare-fun lq_rnm$36$x$35$$35$a5a2d$35$$35$307 () Int)
(declare-fun lq_anf$36$$35$$35$7205759403794024104$35$$35$d5a6Q () Int)
(declare-fun UseCases.WWI.$36$WGetWeatherTown () Int)
(declare-fun GHC.Classes.C$58$$40$$37$$44$$37$$41$ () Int)
(declare-fun GHC.Num.Integer.IP () Int)
(declare-fun lq_tmp$36$x$35$$35$4985 () Int)
(declare-fun x_Tuple32 () Int)
(declare-fun lq_tmp$36$x$35$$35$4523 () Int)
(declare-fun Data.Aeson.Types.Internal.Number () Int)
(declare-fun GHC.Types.TupleRep () Int)
(declare-fun InterfaceAdapters.Weather.WWITelegramPirate.$36$fExceptionWeatherTelegramException () Int)
(declare-fun lq_tmp$36$x$35$$35$4348 () Int)
(declare-fun lit$36$InterfaceAdapters.Weather.WWITelegramPirate () Str)
(declare-fun GHC.Types.TrNameS () Int)
(declare-fun GHC.Types.$36$tc$91$$93$ () Int)
(declare-fun GHC.Num.Integer.IN () Int)
(declare-fun Data.Typeable.Internal.mkTrCon () Int)
(declare-fun lq_tmp$36$x$35$$35$3984 () Int)
(declare-fun lq_tmp$36$x$35$$35$4309 () Int)
(declare-fun lq_anf$36$$35$$35$7205759403794024141$35$$35$d5a7r () Int)
(declare-fun lq_tmp$36$x$35$$35$95 () Int)
(declare-fun lq_tmp$36$x$35$$35$4772 () Int)
(declare-fun GHC.Types.False () Int)
(declare-fun lq_anf$36$$35$$35$7205759403794024145$35$$35$d5a7v () Int)
(declare-fun GHC.Show.$36$fShowChar () Int)
(declare-fun lq_anf$36$$35$$35$7205759403794024149$35$$35$d5a7z () Int)
(declare-fun Data.Typeable.Internal.C$58$Typeable () Int)
(declare-fun GHC.Exception.Type.$36$dmfromException () Int)
(declare-fun lq_tmp$36$x$35$$35$3947 () Int)
(declare-fun papp2 () Int)
(declare-fun fix$36$$36$d$40$$37$$44$$37$$41$_a5a26 () Int)
(declare-fun lit$36$EntityAlreadyExists$32$ () Str)
(declare-fun Polysemy.Internal.Union.C$58$Find () Int)
(declare-fun InterfaceAdapters.Weather.Weather.getAgInfo () Int)
(declare-fun GHC.IO.Handle.Types.$36$WDuplexHandle () Int)
(declare-fun GHC.Types.GT () Int)
(declare-fun GHC.Types.Int32Rep () Int)
(declare-fun Data.Typeable.Internal.TrApp () Int)
(declare-fun apply$35$$35$13 (Int (_ BitVec 32)) Bool)
(declare-fun apply$35$$35$1 (Int Int) Bool)
(declare-fun apply$35$$35$3 (Int Int) (_ BitVec 32))
(declare-fun apply$35$$35$15 (Int (_ BitVec 32)) (_ BitVec 32))
(declare-fun apply$35$$35$14 (Int (_ BitVec 32)) Str)
(declare-fun apply$35$$35$9 (Int Str) Bool)
(declare-fun apply$35$$35$4 (Int Bool) Int)
(declare-fun apply$35$$35$10 (Int Str) Str)
(declare-fun apply$35$$35$11 (Int Str) (_ BitVec 32))
(declare-fun apply$35$$35$12 (Int (_ BitVec 32)) Int)
(declare-fun apply$35$$35$8 (Int Str) Int)
(declare-fun apply$35$$35$0 (Int Int) Int)
(declare-fun apply$35$$35$6 (Int Bool) Str)
(declare-fun apply$35$$35$7 (Int Bool) (_ BitVec 32))
(declare-fun apply$35$$35$2 (Int Int) Str)
(declare-fun apply$35$$35$5 (Int Bool) Bool)
(declare-fun coerce$35$$35$13 ((_ BitVec 32)) Bool)
(declare-fun coerce$35$$35$1 (Int) Bool)
(declare-fun coerce$35$$35$3 (Int) (_ BitVec 32))
(declare-fun coerce$35$$35$15 ((_ BitVec 32)) (_ BitVec 32))
(declare-fun coerce$35$$35$14 ((_ BitVec 32)) Str)
(declare-fun coerce$35$$35$9 (Str) Bool)
(declare-fun coerce$35$$35$4 (Bool) Int)
(declare-fun coerce$35$$35$10 (Str) Str)
(declare-fun coerce$35$$35$11 (Str) (_ BitVec 32))
(declare-fun coerce$35$$35$12 ((_ BitVec 32)) Int)
(declare-fun coerce$35$$35$8 (Str) Int)
(declare-fun coerce$35$$35$0 (Int) Int)
(declare-fun coerce$35$$35$6 (Bool) Str)
(declare-fun coerce$35$$35$7 (Bool) (_ BitVec 32))
(declare-fun coerce$35$$35$2 (Int) Str)
(declare-fun coerce$35$$35$5 (Bool) Bool)
(declare-fun smt_lambda$35$$35$13 ((_ BitVec 32) Bool) Int)
(declare-fun smt_lambda$35$$35$1 (Int Bool) Int)
(declare-fun smt_lambda$35$$35$3 (Int (_ BitVec 32)) Int)
(declare-fun smt_lambda$35$$35$15 ((_ BitVec 32) (_ BitVec 32)) Int)
(declare-fun smt_lambda$35$$35$14 ((_ BitVec 32) Str) Int)
(declare-fun smt_lambda$35$$35$9 (Str Bool) Int)
(declare-fun smt_lambda$35$$35$4 (Bool Int) Int)
(declare-fun smt_lambda$35$$35$10 (Str Str) Int)
(declare-fun smt_lambda$35$$35$11 (Str (_ BitVec 32)) Int)
(declare-fun smt_lambda$35$$35$12 ((_ BitVec 32) Int) Int)
(declare-fun smt_lambda$35$$35$8 (Str Int) Int)
(declare-fun smt_lambda$35$$35$0 (Int Int) Int)
(declare-fun smt_lambda$35$$35$6 (Bool Str) Int)
(declare-fun smt_lambda$35$$35$7 (Bool (_ BitVec 32)) Int)
(declare-fun smt_lambda$35$$35$2 (Int Str) Int)
(declare-fun smt_lambda$35$$35$5 (Bool Bool) Int)
(declare-fun lam_arg$35$$35$1$35$$35$4 () Bool)
(declare-fun lam_arg$35$$35$2$35$$35$4 () Bool)
(declare-fun lam_arg$35$$35$3$35$$35$4 () Bool)
(declare-fun lam_arg$35$$35$4$35$$35$4 () Bool)
(declare-fun lam_arg$35$$35$5$35$$35$4 () Bool)
(declare-fun lam_arg$35$$35$6$35$$35$4 () Bool)
(declare-fun lam_arg$35$$35$7$35$$35$4 () Bool)
(declare-fun lam_arg$35$$35$1$35$$35$12 () (_ BitVec 32))
(declare-fun lam_arg$35$$35$2$35$$35$12 () (_ BitVec 32))
(declare-fun lam_arg$35$$35$3$35$$35$12 () (_ BitVec 32))
(declare-fun lam_arg$35$$35$4$35$$35$12 () (_ BitVec 32))
(declare-fun lam_arg$35$$35$5$35$$35$12 () (_ BitVec 32))
(declare-fun lam_arg$35$$35$6$35$$35$12 () (_ BitVec 32))
(declare-fun lam_arg$35$$35$7$35$$35$12 () (_ BitVec 32))
(declare-fun lam_arg$35$$35$1$35$$35$8 () Str)
(declare-fun lam_arg$35$$35$2$35$$35$8 () Str)
(declare-fun lam_arg$35$$35$3$35$$35$8 () Str)
(declare-fun lam_arg$35$$35$4$35$$35$8 () Str)
(declare-fun lam_arg$35$$35$5$35$$35$8 () Str)
(declare-fun lam_arg$35$$35$6$35$$35$8 () Str)
(declare-fun lam_arg$35$$35$7$35$$35$8 () Str)
(declare-fun lam_arg$35$$35$1$35$$35$0 () Int)
(declare-fun lam_arg$35$$35$2$35$$35$0 () Int)
(declare-fun lam_arg$35$$35$3$35$$35$0 () Int)
(declare-fun lam_arg$35$$35$4$35$$35$0 () Int)
(declare-fun lam_arg$35$$35$5$35$$35$0 () Int)
(declare-fun lam_arg$35$$35$6$35$$35$0 () Int)
(declare-fun lam_arg$35$$35$7$35$$35$0 () Int)

(assert (distinct GHC.Types.False GHC.Types.True))


(assert (distinct lit$36$EntityAlreadyExists$32$ lit$36$InterfaceAdapters.Weather.WWITelegramPirate lit$36$MaximumCity$45$0.9.9$45$IUoVqdUkwWmEGL6yhjWbHS lit$36$InternalError$32$ lit$36$$39$EntityAlreadyExists lit$36$WeatherTelegramException lit$36$$39$EntityNotFound lit$36$$39$InternalError lit$36$Telegram$32$ lit$36$EntityNotFound$32$))
(assert (distinct GHC.Types.Int32Rep GHC.Types.Int16Rep GHC.Types.LiftedRep GHC.Types.FloatRep GHC.Types.AddrRep GHC.Types.Int64Rep GHC.Types.WordRep GHC.Types.Int8Rep GHC.Types.DoubleRep GHC.Types.IntRep GHC.Types.UnliftedRep GHC.Types.Word64Rep GHC.Types.Word16Rep GHC.Types.Word8Rep GHC.Types.Word32Rep))


(assert (distinct GHC.Types.GT GHC.Types.EQ GHC.Types.LT))




(assert (distinct GHC.IO.Unmasked GHC.IO.MaskedInterruptible GHC.IO.MaskedUninterruptible))


(assert (= (strLen lit$36$EntityNotFound$32$) 15))
(assert (= (strLen lit$36$Telegram$32$) 9))
(assert (= (strLen lit$36$$39$InternalError) 14))
(assert (= (strLen lit$36$$39$EntityNotFound) 15))
(assert (= (strLen lit$36$WeatherTelegramException) 24))
(assert (= (strLen lit$36$$39$EntityAlreadyExists) 20))
(assert (= (strLen lit$36$InternalError$32$) 14))
(assert (= (strLen lit$36$MaximumCity$45$0.9.9$45$IUoVqdUkwWmEGL6yhjWbHS) 40))
(assert (= (strLen lit$36$InterfaceAdapters.Weather.WWITelegramPirate) 43))
(assert (= (strLen lit$36$EntityAlreadyExists$32$) 20))
(push 1)
(push 1)
(pop 1)
(pop 1)
(exit)
